set nodes := 1 2 3 4 5 6 7 8 9 10 11 12 13 14 15 16 17 18 19 20;

param orig := 1;
param dest := 20;

param:
  arcs:
    tau :=  # i j tau[i,j]
      1 3 17
      1 2 5
      2 12 12
      3 4 8
      3 5 8
      3 6 16
      4 7 4
      4 8 2
      4 9 3
      5 10 2
      5 11 18
      6 17 0
      7 16 39
      8 16 23
      9 13 4
      10 14 17
      11 15 5
      12 17 0
      13 16 10
      14 16 2
      15 17 21
      16 18 11
      17 16 3
      18 19 8
      19 20 8
;
